Minimize
	value: tt

Subject to
tt + 1000 s_1_1 > 0.0
tt - t_1_1 - 1000.867243 s_1_1  + 0.867243 s_1_7  > -999.443094
tt + 1000 s_2_1 > 0.0
tt - t_2_1 - 1000.627324 s_2_1  + 0.627324 s_2_7  > -989.063800
tt + 1000 s_1_2 > 0.0
tt - t_1_2 - 1000.867243 s_1_2  + 0.867243 s_1_8  > -999.358361
tt + 1000 s_2_2 > 0.0
tt - t_2_2 - 1000.627324 s_2_2  + 0.627324 s_2_8  > -989.214400
tt + 1000 s_1_3 > 0.0
tt - t_1_3 - 1000.867243 s_1_3  + 0.867243 s_1_8  > -999.199178
tt + 1000 s_2_3 > 0.0
tt - t_2_3 - 1000.627324 s_2_3  + 0.627324 s_2_8  > -985.725000
tt + 1000 s_1_4 > 0.0
tt - t_1_4 - 1001.603210 s_1_4  + 0.867243 s_1_8  + 0.735967 s_1_3  > -999.598839
tt + 1000 s_2_4 > 0.0
tt - t_2_4 - 1001.176955 s_2_4  + 0.627324 s_2_8  + 0.549630 s_2_3  > -989.119000
tt + 1000 s_1_5 > 0.0
tt - t_1_5 - 1001.734485 s_1_5  + 0.867243 s_1_7  + 0.867243 s_1_8  > -999.355323
tt + 1000 s_2_5 > 0.0
tt - t_2_5 - 1001.254649 s_2_5  + 0.627324 s_2_7  + 0.627324 s_2_8  > -989.204000
tt + 1000 s_1_6 > 0.0
tt - t_1_6 - 1003.679837 s_1_6  + 0.735967 s_1_2  + 0.735967 s_1_5  + 0.735967 s_1_4  + 0.735967 s_1_3  + 0.735967 s_1_1  > -999.835300
tt + 1000 s_2_6 > 0.0
tt - t_2_6 - 1002.748152 s_2_6  + 0.549630 s_2_2  + 0.549630 s_2_5  + 0.549630 s_2_4  + 0.549630 s_2_3  + 0.549630 s_2_1  > -998.658800
tt + 1000 s_1_7 > 0.0
tt - t_1_7 - 1000.000000 s_1_7  > -998.528900
tt + 1000 s_2_7 > 0.0
tt - t_2_7 - 1000.000000 s_2_7  > -996.367300
tt + 1000 s_1_8 > 0.0
tt - t_1_8 - 1000.000000 s_1_8  > -998.240544
tt + 1000 s_2_8 > 0.0
tt - t_2_8 - 1000.000000 s_2_8  > -995.084800
s_1_1 + s_2_1 = 1
s_1_2 + s_2_2 = 1
s_1_3 + s_2_3 = 1
s_1_4 + s_2_4 = 1
s_1_5 + s_2_5 = 1
s_1_6 + s_2_6 = 1
s_1_7 + s_2_7 = 1
s_1_8 + s_2_8 = 1
s_1_1 + s_1_2 + 1000 r_1_1_2 >= 2
- s_1_1 - s_1_2 - 1000 r_1_1_2 >= -1001
t_1_1 - t_1_2 - 1000.000000 u_1_1_2 - 0.867243 s_1_2  + 0.867243 s_1_8  + 2000.000000 r_1_1_2 > -999.358361
s_2_1 + s_2_2 + 1000 r_2_1_2 >= 2
- s_2_1 - s_2_2 - 1000 r_2_1_2 >= -1001
t_2_1 - t_2_2 - 1000.000000 u_2_1_2 - 0.627324 s_2_2  + 0.627324 s_2_8  + 2000.000000 r_2_1_2 > -989.214400
s_1_1 + s_1_3 + 1000 r_1_1_3 >= 2
- s_1_1 - s_1_3 - 1000 r_1_1_3 >= -1001
t_1_1 - t_1_3 - 1000.000000 u_1_1_3 - 0.867243 s_1_3  + 0.867243 s_1_8  + 2000.000000 r_1_1_3 > -999.199178
s_2_1 + s_2_3 + 1000 r_2_1_3 >= 2
- s_2_1 - s_2_3 - 1000 r_2_1_3 >= -1001
t_2_1 - t_2_3 - 1000.000000 u_2_1_3 - 0.627324 s_2_3  + 0.627324 s_2_8  + 2000.000000 r_2_1_3 > -985.725000
s_1_1 + s_1_4 + 1000 r_1_1_4 >= 2
- s_1_1 - s_1_4 - 1000 r_1_1_4 >= -1001
t_1_1 - t_1_4 - 1000.000000 u_1_1_4 - 1.603210 s_1_4  + 0.867243 s_1_8  + 0.735967 s_1_3  + 2000.000000 r_1_1_4 > -999.598839
s_2_1 + s_2_4 + 1000 r_2_1_4 >= 2
- s_2_1 - s_2_4 - 1000 r_2_1_4 >= -1001
t_2_1 - t_2_4 - 1000.000000 u_2_1_4 - 1.176955 s_2_4  + 0.627324 s_2_8  + 0.549630 s_2_3  + 2000.000000 r_2_1_4 > -989.119000
s_1_1 + s_1_5 + 1000 r_1_1_5 >= 2
- s_1_1 - s_1_5 - 1000 r_1_1_5 >= -1001
t_1_1 - t_1_5 - 1000.000000 u_1_1_5 - 1.734485 s_1_5  + 0.867243 s_1_7  + 0.867243 s_1_8  + 2000.000000 r_1_1_5 > -999.355323
s_2_1 + s_2_5 + 1000 r_2_1_5 >= 2
- s_2_1 - s_2_5 - 1000 r_2_1_5 >= -1001
t_2_1 - t_2_5 - 1000.000000 u_2_1_5 - 1.254649 s_2_5  + 0.627324 s_2_7  + 0.627324 s_2_8  + 2000.000000 r_2_1_5 > -989.204000
t_1_6 - t_1_1 - 1000.867243 s_1_1  + 0.867243 s_1_7  > -999.443094
t_1_6 - t_2_1 - 1000.627324 s_2_1  + 0.627324 s_2_7  > -989.063800
t_2_6 - t_1_1 - 1000.867243 s_1_1  + 0.867243 s_1_7  > -999.443094
t_2_6 - t_2_1 - 1000.627324 s_2_1  + 0.627324 s_2_7  > -989.063800
t_1_1 - t_1_7 - 1000.000000 s_1_7  > -998.528900
t_1_1 - t_2_7 - 1000.000000 s_2_7  > -996.367300
t_2_1 - t_1_7 - 1000.000000 s_1_7  > -998.528900
t_2_1 - t_2_7 - 1000.000000 s_2_7  > -996.367300
s_1_1 + s_1_8 + 1000 r_1_1_8 >= 2
- s_1_1 - s_1_8 - 1000 r_1_1_8 >= -1001
t_1_1 - t_1_8 - 1000.000000 u_1_1_8 - 0.000000 s_1_8  + 2000.000000 r_1_1_8 > -998.240544
s_2_1 + s_2_8 + 1000 r_2_1_8 >= 2
- s_2_1 - s_2_8 - 1000 r_2_1_8 >= -1001
t_2_1 - t_2_8 - 1000.000000 u_2_1_8 - 0.000000 s_2_8  + 2000.000000 r_2_1_8 > -995.084800
s_1_2 + s_1_1 + 1000 r_1_1_2 >= 2
- s_1_2 - s_1_1 - 1000 r_1_1_2 >= -1001
t_1_2 - t_1_1 + 1000.000000 u_1_1_2 - 0.867243 s_1_1  + 0.867243 s_1_7  + 2000.000000 r_1_1_2 > 0.556906
s_2_2 + s_2_1 + 1000 r_2_1_2 >= 2
- s_2_2 - s_2_1 - 1000 r_2_1_2 >= -1001
t_2_2 - t_2_1 + 1000.000000 u_2_1_2 - 0.627324 s_2_1  + 0.627324 s_2_7  + 2000.000000 r_2_1_2 > 10.936200
s_1_2 + s_1_3 + 1000 r_1_2_3 >= 2
- s_1_2 - s_1_3 - 1000 r_1_2_3 >= -1001
t_1_2 - t_1_3 - 1000.000000 u_1_2_3 - 0.867243 s_1_3  + 0.867243 s_1_8  + 2000.000000 r_1_2_3 > -999.199178
s_2_2 + s_2_3 + 1000 r_2_2_3 >= 2
- s_2_2 - s_2_3 - 1000 r_2_2_3 >= -1001
t_2_2 - t_2_3 - 1000.000000 u_2_2_3 - 0.627324 s_2_3  + 0.627324 s_2_8  + 2000.000000 r_2_2_3 > -985.725000
s_1_2 + s_1_4 + 1000 r_1_2_4 >= 2
- s_1_2 - s_1_4 - 1000 r_1_2_4 >= -1001
t_1_2 - t_1_4 - 1000.000000 u_1_2_4 - 1.603210 s_1_4  + 0.867243 s_1_8  + 0.735967 s_1_3  + 2000.000000 r_1_2_4 > -999.598839
s_2_2 + s_2_4 + 1000 r_2_2_4 >= 2
- s_2_2 - s_2_4 - 1000 r_2_2_4 >= -1001
t_2_2 - t_2_4 - 1000.000000 u_2_2_4 - 1.176955 s_2_4  + 0.627324 s_2_8  + 0.549630 s_2_3  + 2000.000000 r_2_2_4 > -989.119000
s_1_2 + s_1_5 + 1000 r_1_2_5 >= 2
- s_1_2 - s_1_5 - 1000 r_1_2_5 >= -1001
t_1_2 - t_1_5 - 1000.000000 u_1_2_5 - 1.734485 s_1_5  + 0.867243 s_1_7  + 0.867243 s_1_8  + 2000.000000 r_1_2_5 > -999.355323
s_2_2 + s_2_5 + 1000 r_2_2_5 >= 2
- s_2_2 - s_2_5 - 1000 r_2_2_5 >= -1001
t_2_2 - t_2_5 - 1000.000000 u_2_2_5 - 1.254649 s_2_5  + 0.627324 s_2_7  + 0.627324 s_2_8  + 2000.000000 r_2_2_5 > -989.204000
t_1_6 - t_1_2 - 1000.867243 s_1_2  + 0.867243 s_1_8  > -999.358361
t_1_6 - t_2_2 - 1000.627324 s_2_2  + 0.627324 s_2_8  > -989.214400
t_2_6 - t_1_2 - 1000.867243 s_1_2  + 0.867243 s_1_8  > -999.358361
t_2_6 - t_2_2 - 1000.627324 s_2_2  + 0.627324 s_2_8  > -989.214400
s_1_2 + s_1_7 + 1000 r_1_2_7 >= 2
- s_1_2 - s_1_7 - 1000 r_1_2_7 >= -1001
t_1_2 - t_1_7 - 1000.000000 u_1_2_7 - 0.000000 s_1_7  + 2000.000000 r_1_2_7 > -998.528900
s_2_2 + s_2_7 + 1000 r_2_2_7 >= 2
- s_2_2 - s_2_7 - 1000 r_2_2_7 >= -1001
t_2_2 - t_2_7 - 1000.000000 u_2_2_7 - 0.000000 s_2_7  + 2000.000000 r_2_2_7 > -996.367300
t_1_2 - t_1_8 - 1000.000000 s_1_8  > -998.240544
t_1_2 - t_2_8 - 1000.000000 s_2_8  > -995.084800
t_2_2 - t_1_8 - 1000.000000 s_1_8  > -998.240544
t_2_2 - t_2_8 - 1000.000000 s_2_8  > -995.084800
s_1_3 + s_1_1 + 1000 r_1_1_3 >= 2
- s_1_3 - s_1_1 - 1000 r_1_1_3 >= -1001
t_1_3 - t_1_1 + 1000.000000 u_1_1_3 - 0.867243 s_1_1  + 0.867243 s_1_7  + 2000.000000 r_1_1_3 > 0.556906
s_2_3 + s_2_1 + 1000 r_2_1_3 >= 2
- s_2_3 - s_2_1 - 1000 r_2_1_3 >= -1001
t_2_3 - t_2_1 + 1000.000000 u_2_1_3 - 0.627324 s_2_1  + 0.627324 s_2_7  + 2000.000000 r_2_1_3 > 10.936200
s_1_3 + s_1_2 + 1000 r_1_2_3 >= 2
- s_1_3 - s_1_2 - 1000 r_1_2_3 >= -1001
t_1_3 - t_1_2 + 1000.000000 u_1_2_3 - 0.867243 s_1_2  + 0.867243 s_1_8  + 2000.000000 r_1_2_3 > 0.641639
s_2_3 + s_2_2 + 1000 r_2_2_3 >= 2
- s_2_3 - s_2_2 - 1000 r_2_2_3 >= -1001
t_2_3 - t_2_2 + 1000.000000 u_2_2_3 - 0.627324 s_2_2  + 0.627324 s_2_8  + 2000.000000 r_2_2_3 > 10.785600
t_1_4 - t_1_3 - 1000.867243 s_1_3  + 0.867243 s_1_8  > -999.199178
t_1_4 - t_2_3 - 1000.627324 s_2_3  + 0.627324 s_2_8  > -985.725000
t_2_4 - t_1_3 - 1000.867243 s_1_3  + 0.867243 s_1_8  > -999.199178
t_2_4 - t_2_3 - 1000.627324 s_2_3  + 0.627324 s_2_8  > -985.725000
s_1_3 + s_1_5 + 1000 r_1_3_5 >= 2
- s_1_3 - s_1_5 - 1000 r_1_3_5 >= -1001
t_1_3 - t_1_5 - 1000.000000 u_1_3_5 - 1.734485 s_1_5  + 0.867243 s_1_7  + 0.867243 s_1_8  + 2000.000000 r_1_3_5 > -999.355323
s_2_3 + s_2_5 + 1000 r_2_3_5 >= 2
- s_2_3 - s_2_5 - 1000 r_2_3_5 >= -1001
t_2_3 - t_2_5 - 1000.000000 u_2_3_5 - 1.254649 s_2_5  + 0.627324 s_2_7  + 0.627324 s_2_8  + 2000.000000 r_2_3_5 > -989.204000
t_1_6 - t_1_3 - 1000.867243 s_1_3  + 0.867243 s_1_8  > -999.199178
t_1_6 - t_2_3 - 1000.627324 s_2_3  + 0.627324 s_2_8  > -985.725000
t_2_6 - t_1_3 - 1000.867243 s_1_3  + 0.867243 s_1_8  > -999.199178
t_2_6 - t_2_3 - 1000.627324 s_2_3  + 0.627324 s_2_8  > -985.725000
s_1_3 + s_1_7 + 1000 r_1_3_7 >= 2
- s_1_3 - s_1_7 - 1000 r_1_3_7 >= -1001
t_1_3 - t_1_7 - 1000.000000 u_1_3_7 - 0.000000 s_1_7  + 2000.000000 r_1_3_7 > -998.528900
s_2_3 + s_2_7 + 1000 r_2_3_7 >= 2
- s_2_3 - s_2_7 - 1000 r_2_3_7 >= -1001
t_2_3 - t_2_7 - 1000.000000 u_2_3_7 - 0.000000 s_2_7  + 2000.000000 r_2_3_7 > -996.367300
t_1_3 - t_1_8 - 1000.000000 s_1_8  > -998.240544
t_1_3 - t_2_8 - 1000.000000 s_2_8  > -995.084800
t_2_3 - t_1_8 - 1000.000000 s_1_8  > -998.240544
t_2_3 - t_2_8 - 1000.000000 s_2_8  > -995.084800
s_1_4 + s_1_1 + 1000 r_1_1_4 >= 2
- s_1_4 - s_1_1 - 1000 r_1_1_4 >= -1001
t_1_4 - t_1_1 + 1000.000000 u_1_1_4 - 0.867243 s_1_1  + 0.867243 s_1_7  + 2000.000000 r_1_1_4 > 0.556906
s_2_4 + s_2_1 + 1000 r_2_1_4 >= 2
- s_2_4 - s_2_1 - 1000 r_2_1_4 >= -1001
t_2_4 - t_2_1 + 1000.000000 u_2_1_4 - 0.627324 s_2_1  + 0.627324 s_2_7  + 2000.000000 r_2_1_4 > 10.936200
s_1_4 + s_1_2 + 1000 r_1_2_4 >= 2
- s_1_4 - s_1_2 - 1000 r_1_2_4 >= -1001
t_1_4 - t_1_2 + 1000.000000 u_1_2_4 - 0.867243 s_1_2  + 0.867243 s_1_8  + 2000.000000 r_1_2_4 > 0.641639
s_2_4 + s_2_2 + 1000 r_2_2_4 >= 2
- s_2_4 - s_2_2 - 1000 r_2_2_4 >= -1001
t_2_4 - t_2_2 + 1000.000000 u_2_2_4 - 0.627324 s_2_2  + 0.627324 s_2_8  + 2000.000000 r_2_2_4 > 10.785600
s_1_4 + s_1_5 + 1000 r_1_4_5 >= 2
- s_1_4 - s_1_5 - 1000 r_1_4_5 >= -1001
t_1_4 - t_1_5 - 1000.000000 u_1_4_5 - 1.734485 s_1_5  + 0.867243 s_1_7  + 0.867243 s_1_8  + 2000.000000 r_1_4_5 > -999.355323
s_2_4 + s_2_5 + 1000 r_2_4_5 >= 2
- s_2_4 - s_2_5 - 1000 r_2_4_5 >= -1001
t_2_4 - t_2_5 - 1000.000000 u_2_4_5 - 1.254649 s_2_5  + 0.627324 s_2_7  + 0.627324 s_2_8  + 2000.000000 r_2_4_5 > -989.204000
t_1_6 - t_1_4 - 1001.603210 s_1_4  + 0.867243 s_1_8  + 0.735967 s_1_3  > -999.598839
t_1_6 - t_2_4 - 1001.176955 s_2_4  + 0.627324 s_2_8  + 0.549630 s_2_3  > -989.119000
t_2_6 - t_1_4 - 1001.603210 s_1_4  + 0.867243 s_1_8  + 0.735967 s_1_3  > -999.598839
t_2_6 - t_2_4 - 1001.176955 s_2_4  + 0.627324 s_2_8  + 0.549630 s_2_3  > -989.119000
s_1_4 + s_1_7 + 1000 r_1_4_7 >= 2
- s_1_4 - s_1_7 - 1000 r_1_4_7 >= -1001
t_1_4 - t_1_7 - 1000.000000 u_1_4_7 - 0.000000 s_1_7  + 2000.000000 r_1_4_7 > -998.528900
s_2_4 + s_2_7 + 1000 r_2_4_7 >= 2
- s_2_4 - s_2_7 - 1000 r_2_4_7 >= -1001
t_2_4 - t_2_7 - 1000.000000 u_2_4_7 - 0.000000 s_2_7  + 2000.000000 r_2_4_7 > -996.367300
t_1_4 - t_1_8 - 1000.000000 s_1_8  > -998.240544
t_1_4 - t_2_8 - 1000.000000 s_2_8  > -995.084800
t_2_4 - t_1_8 - 1000.000000 s_1_8  > -998.240544
t_2_4 - t_2_8 - 1000.000000 s_2_8  > -995.084800
s_1_5 + s_1_1 + 1000 r_1_1_5 >= 2
- s_1_5 - s_1_1 - 1000 r_1_1_5 >= -1001
t_1_5 - t_1_1 + 1000.000000 u_1_1_5 - 0.867243 s_1_1  + 0.867243 s_1_7  + 2000.000000 r_1_1_5 > 0.556906
s_2_5 + s_2_1 + 1000 r_2_1_5 >= 2
- s_2_5 - s_2_1 - 1000 r_2_1_5 >= -1001
t_2_5 - t_2_1 + 1000.000000 u_2_1_5 - 0.627324 s_2_1  + 0.627324 s_2_7  + 2000.000000 r_2_1_5 > 10.936200
s_1_5 + s_1_2 + 1000 r_1_2_5 >= 2
- s_1_5 - s_1_2 - 1000 r_1_2_5 >= -1001
t_1_5 - t_1_2 + 1000.000000 u_1_2_5 - 0.867243 s_1_2  + 0.867243 s_1_8  + 2000.000000 r_1_2_5 > 0.641639
s_2_5 + s_2_2 + 1000 r_2_2_5 >= 2
- s_2_5 - s_2_2 - 1000 r_2_2_5 >= -1001
t_2_5 - t_2_2 + 1000.000000 u_2_2_5 - 0.627324 s_2_2  + 0.627324 s_2_8  + 2000.000000 r_2_2_5 > 10.785600
s_1_5 + s_1_3 + 1000 r_1_3_5 >= 2
- s_1_5 - s_1_3 - 1000 r_1_3_5 >= -1001
t_1_5 - t_1_3 + 1000.000000 u_1_3_5 - 0.867243 s_1_3  + 0.867243 s_1_8  + 2000.000000 r_1_3_5 > 0.800822
s_2_5 + s_2_3 + 1000 r_2_3_5 >= 2
- s_2_5 - s_2_3 - 1000 r_2_3_5 >= -1001
t_2_5 - t_2_3 + 1000.000000 u_2_3_5 - 0.627324 s_2_3  + 0.627324 s_2_8  + 2000.000000 r_2_3_5 > 14.275000
s_1_5 + s_1_4 + 1000 r_1_4_5 >= 2
- s_1_5 - s_1_4 - 1000 r_1_4_5 >= -1001
t_1_5 - t_1_4 + 1000.000000 u_1_4_5 - 1.603210 s_1_4  + 0.867243 s_1_8  + 0.735967 s_1_3  + 2000.000000 r_1_4_5 > 0.401161
s_2_5 + s_2_4 + 1000 r_2_4_5 >= 2
- s_2_5 - s_2_4 - 1000 r_2_4_5 >= -1001
t_2_5 - t_2_4 + 1000.000000 u_2_4_5 - 1.176955 s_2_4  + 0.627324 s_2_8  + 0.549630 s_2_3  + 2000.000000 r_2_4_5 > 10.881000
t_1_6 - t_1_5 - 1001.734485 s_1_5  + 0.867243 s_1_7  + 0.867243 s_1_8  > -999.355323
t_1_6 - t_2_5 - 1001.254649 s_2_5  + 0.627324 s_2_7  + 0.627324 s_2_8  > -989.204000
t_2_6 - t_1_5 - 1001.734485 s_1_5  + 0.867243 s_1_7  + 0.867243 s_1_8  > -999.355323
t_2_6 - t_2_5 - 1001.254649 s_2_5  + 0.627324 s_2_7  + 0.627324 s_2_8  > -989.204000
t_1_5 - t_1_7 - 1000.000000 s_1_7  > -998.528900
t_1_5 - t_2_7 - 1000.000000 s_2_7  > -996.367300
t_2_5 - t_1_7 - 1000.000000 s_1_7  > -998.528900
t_2_5 - t_2_7 - 1000.000000 s_2_7  > -996.367300
t_1_5 - t_1_8 - 1000.000000 s_1_8  > -998.240544
t_1_5 - t_2_8 - 1000.000000 s_2_8  > -995.084800
t_2_5 - t_1_8 - 1000.000000 s_1_8  > -998.240544
t_2_5 - t_2_8 - 1000.000000 s_2_8  > -995.084800
s_1_7 + s_1_2 + 1000 r_1_2_7 >= 2
- s_1_7 - s_1_2 - 1000 r_1_2_7 >= -1001
t_1_7 - t_1_2 + 1000.000000 u_1_2_7 - 0.867243 s_1_2  + 0.867243 s_1_8  + 2000.000000 r_1_2_7 > 0.641639
s_2_7 + s_2_2 + 1000 r_2_2_7 >= 2
- s_2_7 - s_2_2 - 1000 r_2_2_7 >= -1001
t_2_7 - t_2_2 + 1000.000000 u_2_2_7 - 0.627324 s_2_2  + 0.627324 s_2_8  + 2000.000000 r_2_2_7 > 10.785600
s_1_7 + s_1_3 + 1000 r_1_3_7 >= 2
- s_1_7 - s_1_3 - 1000 r_1_3_7 >= -1001
t_1_7 - t_1_3 + 1000.000000 u_1_3_7 - 0.867243 s_1_3  + 0.867243 s_1_8  + 2000.000000 r_1_3_7 > 0.800822
s_2_7 + s_2_3 + 1000 r_2_3_7 >= 2
- s_2_7 - s_2_3 - 1000 r_2_3_7 >= -1001
t_2_7 - t_2_3 + 1000.000000 u_2_3_7 - 0.627324 s_2_3  + 0.627324 s_2_8  + 2000.000000 r_2_3_7 > 14.275000
s_1_7 + s_1_4 + 1000 r_1_4_7 >= 2
- s_1_7 - s_1_4 - 1000 r_1_4_7 >= -1001
t_1_7 - t_1_4 + 1000.000000 u_1_4_7 - 1.603210 s_1_4  + 0.867243 s_1_8  + 0.735967 s_1_3  + 2000.000000 r_1_4_7 > 0.401161
s_2_7 + s_2_4 + 1000 r_2_4_7 >= 2
- s_2_7 - s_2_4 - 1000 r_2_4_7 >= -1001
t_2_7 - t_2_4 + 1000.000000 u_2_4_7 - 1.176955 s_2_4  + 0.627324 s_2_8  + 0.549630 s_2_3  + 2000.000000 r_2_4_7 > 10.881000
s_1_7 + s_1_8 + 1000 r_1_7_8 >= 2
- s_1_7 - s_1_8 - 1000 r_1_7_8 >= -1001
t_1_7 - t_1_8 - 1000.000000 u_1_7_8 - 0.000000 s_1_8  + 2000.000000 r_1_7_8 > -998.240544
s_2_7 + s_2_8 + 1000 r_2_7_8 >= 2
- s_2_7 - s_2_8 - 1000 r_2_7_8 >= -1001
t_2_7 - t_2_8 - 1000.000000 u_2_7_8 - 0.000000 s_2_8  + 2000.000000 r_2_7_8 > -995.084800
s_1_8 + s_1_1 + 1000 r_1_1_8 >= 2
- s_1_8 - s_1_1 - 1000 r_1_1_8 >= -1001
t_1_8 - t_1_1 + 1000.000000 u_1_1_8 - 0.867243 s_1_1  + 0.867243 s_1_7  + 2000.000000 r_1_1_8 > 0.556906
s_2_8 + s_2_1 + 1000 r_2_1_8 >= 2
- s_2_8 - s_2_1 - 1000 r_2_1_8 >= -1001
t_2_8 - t_2_1 + 1000.000000 u_2_1_8 - 0.627324 s_2_1  + 0.627324 s_2_7  + 2000.000000 r_2_1_8 > 10.936200
s_1_8 + s_1_7 + 1000 r_1_7_8 >= 2
- s_1_8 - s_1_7 - 1000 r_1_7_8 >= -1001
t_1_8 - t_1_7 + 1000.000000 u_1_7_8 - 0.000000 s_1_7  + 2000.000000 r_1_7_8 > 1.471100
s_2_8 + s_2_7 + 1000 r_2_7_8 >= 2
- s_2_8 - s_2_7 - 1000 r_2_7_8 >= -1001
t_2_8 - t_2_7 + 1000.000000 u_2_7_8 - 0.000000 s_2_7  + 2000.000000 r_2_7_8 > 3.632700
Binary
s_1_1
s_2_1
s_1_2
s_2_2
s_1_3
s_2_3
s_1_4
s_2_4
s_1_5
s_2_5
s_1_6
s_2_6
s_1_7
s_2_7
s_1_8
s_2_8
u_1_1_2
r_1_1_2
u_2_1_2
r_2_1_2
u_1_1_3
r_1_1_3
u_2_1_3
r_2_1_3
u_1_1_4
r_1_1_4
u_2_1_4
r_2_1_4
u_1_1_5
r_1_1_5
u_2_1_5
r_2_1_5
u_1_1_8
r_1_1_8
u_2_1_8
r_2_1_8
u_1_2_3
r_1_2_3
u_2_2_3
r_2_2_3
u_1_2_4
r_1_2_4
u_2_2_4
r_2_2_4
u_1_2_5
r_1_2_5
u_2_2_5
r_2_2_5
u_1_2_7
r_1_2_7
u_2_2_7
r_2_2_7
u_1_3_5
r_1_3_5
u_2_3_5
r_2_3_5
u_1_3_7
r_1_3_7
u_2_3_7
r_2_3_7
u_1_4_5
r_1_4_5
u_2_4_5
r_2_4_5
u_1_4_7
r_1_4_7
u_2_4_7
r_2_4_7
u_1_7_8
r_1_7_8
u_2_7_8
r_2_7_8

End
